70
1 0 27
2 0 22
2 1 25
3 0 7
3 1 25
3 2 31
4 1 26
4 2 35
4 3 9
5 0 6
5 1 21
5 2 17
5 3 10
6 0 16
6 1 13
6 2 32
6 3 9
6 4 14
6 5 29
7 0 30
7 1 9
7 2 24
7 3 28
7 4 6
7 5 31
7 6 3
8 0 19
8 1 39
8 2 25
8 3 15
8 4 23
8 5 1
8 6 18
8 7 1
9 0 7
9 1 4
9 3 36
9 4 6
9 5 36
9 6 3
9 8 30
10 0 38
10 1 29
10 2 2
10 3 40
10 4 11
10 5 4
10 6 23
10 7 18
10 8 15
10 9 9
11 0 36
11 1 29
11 2 21
11 3 11
11 4 38
11 5 9
11 7 37
11 9 36
11 10 39
12 0 23
12 1 39
12 2 24
12 3 23
12 4 33
12 5 13
12 6 32
12 7 30
12 8 16
12 9 28
12 10 38
12 11 3
13 0 26
13 2 4
13 3 27
13 4 15
13 5 27
13 6 30
13 7 38
13 8 26
13 9 12
13 10 6
13 11 11
13 12 21
14 0 8
14 1 29
14 2 35
14 3 29
14 4 36
14 5 32
14 6 33
14 7 33
14 8 15
14 11 28
14 12 10
14 13 22
15 0 22
15 1 6
15 2 28
15 3 4
15 4 17
15 6 3
15 7 34
15 8 14
15 10 15
15 11 38
15 12 36
15 13 23
15 14 26
16 0 8
16 1 18
16 2 30
16 3 17
16 4 19
16 5 17
16 6 21
16 7 23
16 9 30
16 10 26
16 11 15
16 12 21
16 13 16
16 14 7
16 15 21
17 0 10
17 1 19
17 2 33
17 3 20
17 4 40
17 5 9
17 6 33
17 7 32
17 8 4
17 9 38
17 10 1
17 11 3
17 12 35
17 13 10
17 14 28
17 15 4
17 16 10
18 0 4
18 2 38
18 3 29
18 4 25
18 5 33
18 7 8
18 8 31
18 9 19
18 10 26
18 11 34
18 12 14
18 14 12
18 15 30
18 16 7
18 17 18
19 0 30
19 1 2
19 4 29
19 5 25
19 7 38
19 8 34
19 9 40
19 10 1
19 11 25
19 12 36
19 13 5
19 14 35
19 15 16
19 16 13
19 17 38
19 18 27
20 1 15
20 3 3
20 4 33
20 5 13
20 6 33
20 7 18
20 8 29
20 10 28
20 11 29
20 12 19
20 13 1
20 14 36
20 15 32
20 16 35
20 17 38
20 18 24
20 19 35
21 0 12
21 1 29
21 2 39
21 3 35
21 4 7
21 5 8
21 6 33
21 8 23
21 9 29
21 10 2
21 11 29
21 12 18
21 13 38
21 14 24
21 15 35
21 16 16
21 17 11
21 18 2
21 19 31
21 20 37
22 0 18
22 1 17
22 2 18
22 3 26
22 4 11
22 5 15
22 6 12
22 7 2
22 9 9
22 12 34
22 13 17
22 14 34
22 15 14
22 18 15
22 19 1
22 20 17
22 21 19
23 0 28
23 1 28
23 3 21
23 4 13
23 5 38
23 7 7
23 8 6
23 9 14
23 10 17
23 12 16
23 13 33
23 14 1
23 15 26
23 16 38
23 17 4
23 18 27
23 19 13
23 20 26
23 21 35
23 22 29
24 0 40
24 1 40
24 2 33
24 4 5
24 5 11
24 6 4
24 7 19
24 8 37
24 9 4
24 10 22
24 11 24
24 12 22
24 13 15
24 14 39
24 15 6
24 16 35
24 17 9
24 19 31
24 20 23
24 21 26
24 22 14
24 23 7
25 0 2
25 1 21
25 2 7
25 3 7
25 4 39
25 5 22
25 6 30
25 7 6
25 8 12
25 9 1
25 10 13
25 11 25
25 12 5
25 13 36
25 14 2
25 15 3
25 16 22
25 17 7
25 18 1
25 19 38
25 21 37
25 22 11
25 23 3
25 24 27
26 0 26
26 1 31
26 2 34
26 4 39
26 5 39
26 6 8
26 8 2
26 9 20
26 10 19
26 11 21
26 12 38
26 13 36
26 14 2
26 15 38
26 17 31
26 18 36
26 19 6
26 20 11
26 21 28
26 22 36
26 23 37
26 24 24
27 0 22
27 1 28
27 2 23
27 3 7
27 4 29
27 5 31
27 6 35
27 7 14
27 8 37
27 9 18
27 10 1
27 11 36
27 12 7
27 13 14
27 14 21
27 15 13
27 16 9
27 17 9
27 18 24
27 19 25
27 20 20
27 21 10
27 22 33
27 23 35
27 24 33
27 25 16
28 0 36
28 1 16
28 2 16
28 3 13
28 4 24
28 5 21
28 6 13
28 7 22
28 8 5
28 9 39
28 10 9
28 11 34
28 12 27
28 13 29
28 14 25
28 15 5
28 16 33
28 17 21
28 18 17
28 19 29
28 20 8
28 21 38
28 22 37
28 23 31
28 24 34
28 25 30
28 26 23
28 27 6
29 0 36
29 1 35
29 2 28
29 3 24
29 4 7
29 5 36
29 7 33
29 8 23
29 9 9
29 10 26
29 11 19
29 12 23
29 15 9
29 16 19
29 17 36
29 18 13
29 19 20
29 20 27
29 21 12
29 22 3
29 23 4
29 24 7
29 25 35
29 26 34
29 28 20
30 0 31
30 1 38
30 2 12
30 3 29
30 4 8
30 5 8
30 6 10
30 7 28
30 8 22
30 9 32
30 10 32
30 11 35
30 12 30
30 13 25
30 14 36
30 15 25
30 16 1
30 17 22
30 18 23
30 19 31
30 20 2
30 21 12
30 22 2
30 23 37
30 24 20
30 25 31
30 26 5
30 27 37
30 28 14
30 29 30
31 0 30
31 1 16
31 2 36
31 3 9
31 4 36
31 5 27
31 6 1
31 7 21
31 8 32
31 9 22
31 10 18
31 11 30
31 12 15
31 13 17
31 14 18
31 15 22
31 16 22
31 17 40
31 18 9
31 19 7
31 20 18
31 21 25
31 22 30
31 23 3
31 24 30
31 26 35
31 27 27
31 28 20
31 29 5
31 30 40
32 0 16
32 1 9
32 3 30
32 4 13
32 5 6
32 6 3
32 7 10
32 9 34
32 10 7
32 11 23
32 12 34
32 13 5
32 14 27
32 15 6
32 16 13
32 18 24
32 19 39
32 20 31
32 21 8
32 22 5
32 23 3
32 24 16
32 25 33
32 26 31
32 27 29
32 28 25
32 29 31
32 30 9
32 31 31
33 0 30
33 1 15
33 2 5
33 3 6
33 4 38
33 6 16
33 7 4
33 8 2
33 9 37
33 11 3
33 12 7
33 13 25
33 14 7
33 15 6
33 16 29
33 17 25
33 18 35
33 19 26
33 20 4
33 21 3
33 22 1
33 23 36
33 25 19
33 27 33
33 28 37
33 29 24
33 30 34
33 31 11
34 0 7
34 1 2
34 2 3
34 4 14
34 5 16
34 6 10
34 9 38
34 10 15
34 13 23
34 14 16
34 15 38
34 16 9
34 17 10
34 18 6
34 19 36
34 20 22
34 21 6
34 23 1
34 24 7
34 25 13
34 26 23
34 27 2
34 28 31
34 29 14
34 30 19
34 31 23
34 32 2
35 0 20
35 2 4
35 4 30
35 5 3
35 6 33
35 7 22
35 8 38
35 9 15
35 10 34
35 11 15
35 12 4
35 13 39
35 14 31
35 15 25
35 16 6
35 17 24
35 18 17
35 19 14
35 20 7
35 22 12
35 23 34
35 24 18
35 25 21
35 26 30
35 27 17
35 28 17
35 29 28
35 30 1
35 31 40
35 32 7
35 33 23
35 34 1
36 0 33
36 1 14
36 2 19
36 4 20
36 5 2
36 6 38
36 7 19
36 8 14
36 9 17
36 10 34
36 11 24
36 12 11
36 13 33
36 14 12
36 15 10
36 18 25
36 19 3
36 20 16
36 21 15
36 22 31
36 23 35
36 25 27
36 26 9
36 27 4
36 29 23
36 30 12
36 31 19
36 32 39
36 33 11
36 34 34
36 35 26
37 0 14
37 1 24
37 2 36
37 3 29
37 4 6
37 5 34
37 6 18
37 7 10
37 9 31
37 10 22
37 11 30
37 12 36
37 13 13
37 16 40
37 17 5
37 20 21
37 21 39
37 22 30
37 23 15
37 24 35
37 25 1
37 26 7
37 27 37
37 28 10
37 29 2
37 30 12
37 31 29
37 32 26
37 33 35
37 34 7
37 35 4
37 36 5
38 0 2
38 1 18
38 2 18
38 3 18
38 4 39
38 6 33
38 7 40
38 8 36
38 9 18
38 10 12
38 12 29
38 13 38
38 14 22
38 15 30
38 16 29
38 17 22
38 18 40
38 20 20
38 21 22
38 22 22
38 24 4
38 25 18
38 28 35
38 29 11
38 30 34
38 31 28
38 32 5
38 33 1
38 34 1
38 36 30
38 37 31
39 0 19
39 1 13
39 2 36
39 3 8
39 4 36
39 5 18
39 6 7
39 7 24
39 8 28
39 9 28
39 10 39
39 11 30
39 12 15
39 13 6
39 15 33
39 16 8
39 17 17
39 18 24
39 19 33
39 20 10
39 21 34
39 22 30
39 23 35
39 25 31
39 26 17
39 27 19
39 28 6
39 29 34
39 31 21
39 32 38
39 33 38
39 34 19
39 35 3
39 36 26
39 37 40
39 38 10
40 0 35
40 1 25
40 2 33
40 3 16
40 4 28
40 5 35
40 6 26
40 7 18
40 8 11
40 9 6
40 10 34
40 11 23
40 13 30
40 14 6
40 15 40
40 16 36
40 17 35
40 18 4
40 20 38
40 21 9
40 22 1
40 23 3
40 24 26
40 26 3
40 27 18
40 28 7
40 31 17
40 32 39
40 33 34
40 34 24
40 35 13
40 36 6
40 37 34
40 38 24
40 39 24
41 0 2
41 1 5
41 2 3
41 3 35
41 4 37
41 5 25
41 6 6
41 7 5
41 8 38
41 9 38
41 11 35
41 12 34
41 13 6
41 14 33
41 15 20
41 17 26
41 18 4
41 19 18
41 20 36
41 21 26
41 22 3
41 23 37
41 24 7
41 25 27
41 27 12
41 29 5
41 30 10
41 31 19
41 32 4
41 33 23
41 34 17
41 35 2
41 36 32
41 37 27
41 38 22
41 39 18
41 40 36
42 0 15
42 1 6
42 2 2
42 3 23
42 4 20
42 5 6
42 6 5
42 7 33
42 8 1
42 9 11
42 10 27
42 11 22
42 12 16
42 13 7
42 15 37
42 16 10
42 17 1
42 18 10
42 19 16
42 20 35
42 21 12
42 22 28
42 23 20
42 24 20
42 25 8
42 26 39
42 27 11
42 28 17
42 30 33
42 32 37
42 34 30
42 35 17
42 36 2
42 37 37
42 38 39
42 39 26
42 40 20
43 1 22
43 2 3
43 3 6
43 4 35
43 5 1
43 6 1
43 7 32
43 8 22
43 9 27
43 10 30
43 11 24
43 12 6
43 13 14
43 14 9
43 15 36
43 16 21
43 17 29
43 18 28
43 19 22
43 20 38
43 21 26
43 22 6
43 23 13
43 24 31
43 25 26
43 26 27
43 27 37
43 28 17
43 29 6
43 30 35
43 32 17
43 33 21
43 34 2
43 35 7
43 36 26
43 37 22
43 38 20
43 39 13
43 40 22
43 41 6
43 42 5
44 0 8
44 1 22
44 2 6
44 3 35
44 4 40
44 5 20
44 6 5
44 8 34
44 9 2
44 10 9
44 11 33
44 12 34
44 13 19
44 14 1
44 15 29
44 16 23
44 17 31
44 18 31
44 19 18
44 20 27
44 21 8
44 23 18
44 24 7
44 26 27
44 27 33
44 28 30
44 29 3
44 30 31
44 31 10
44 32 16
44 33 12
44 34 38
44 35 32
44 36 28
44 37 1
44 38 32
44 39 13
44 40 24
44 41 30
44 42 3
44 43 11
45 0 26
45 1 24
45 2 10
45 3 37
45 4 25
45 6 15
45 7 25
45 8 14
45 9 9
45 10 38
45 11 27
45 12 1
45 13 36
45 14 7
45 15 5
45 16 34
45 17 17
45 19 40
45 20 19
45 21 8
45 22 25
45 23 18
45 24 5
45 25 23
45 26 19
45 27 11
45 29 11
45 31 28
45 32 7
45 33 7
45 34 11
45 35 30
45 36 27
45 37 25
45 38 40
45 39 36
45 40 33
45 41 16
45 42 31
45 43 40
45 44 18
46 0 31
46 1 3
46 2 38
46 3 33
46 4 1
46 5 2
46 7 11
46 8 4
46 10 17
46 11 29
46 12 7
46 13 34
46 14 36
46 15 21
46 16 10
46 17 25
46 18 20
46 19 19
46 20 26
46 21 11
46 22 27
46 23 33
46 24 40
46 25 29
46 26 13
46 27 35
46 28 36
46 29 28
46 30 31
46 31 33
46 32 18
46 34 35
46 35 29
46 36 2
46 37 25
46 38 15
46 39 12
46 40 8
46 42 37
46 43 34
46 44 2
46 45 4
47 0 20
47 1 35
47 2 11
47 3 19
47 4 15
47 5 27
47 6 35
47 7 26
47 8 18
47 9 26
47 10 35
47 11 22
47 12 24
47 13 34
47 14 15
47 15 23
47 16 31
47 17 31
47 18 26
47 19 21
47 20 14
47 21 21
47 22 28
47 23 7
47 24 7
47 25 30
47 26 33
47 27 16
47 28 19
47 29 17
47 30 6
47 31 38
47 32 37
47 33 7
47 34 2
47 35 7
47 36 36
47 37 38
47 38 5
47 39 38
47 40 26
47 42 8
47 44 29
47 45 30
47 46 23
48 0 30
48 1 4
48 2 15
48 3 31
48 4 13
48 5 5
48 6 38
48 7 13
48 8 30
48 9 2
48 10 18
48 11 39
48 12 19
48 13 27
48 14 6
48 16 3
48 18 39
48 19 35
48 20 32
48 21 23
48 22 5
48 23 38
48 24 25
48 25 8
48 26 36
48 28 19
48 30 12
48 31 36
48 32 13
48 33 1
48 34 19
48 35 12
48 36 11
48 37 22
48 38 36
48 39 10
48 40 32
48 41 6
48 42 1
48 43 29
48 44 39
48 45 17
48 46 4
48 47 20
49 0 13
49 1 30
49 3 34
49 5 11
49 6 5
49 7 21
49 8 16
49 10 15
49 11 29
49 12 15
49 13 38
49 14 6
49 16 5
49 17 7
49 19 8
49 20 3
49 21 13
49 22 2
49 23 30
49 24 9
49 25 18
49 26 38
49 27 14
49 28 20
49 29 11
49 30 31
49 32 21
49 33 8
49 34 19
49 35 22
49 36 30
49 37 23
49 38 5
49 40 11
49 41 13
49 42 23
49 43 39
49 44 14
49 45 38
49 46 12
49 47 14
49 48 12
50 0 24
50 1 15
50 2 19
50 3 27
50 4 28
50 5 15
50 7 26
50 8 14
50 9 15
50 10 5
50 11 29
50 12 10
50 13 34
50 14 35
50 15 5
50 16 24
50 17 8
50 18 34
50 19 38
50 20 14
50 21 7
50 22 40
50 23 31
50 24 36
50 26 13
50 27 19
50 28 10
50 29 16
50 30 20
50 32 33
50 33 21
50 35 22
50 36 9
50 37 24
50 38 1
50 39 27
50 41 18
50 42 11
50 43 1
50 44 39
50 45 32
50 46 16
50 47 39
50 48 35
51 1 27
51 2 30
51 3 20
51 4 30
51 5 10
51 7 23
51 8 33
51 9 27
51 10 38
51 11 7
51 12 30
51 13 17
51 14 38
51 15 26
51 16 14
51 17 25
51 20 35
51 21 30
51 22 21
51 23 28
51 24 30
51 25 12
51 26 8
51 27 18
51 28 16
51 29 34
51 30 4
51 31 40
51 32 32
51 33 35
51 34 27
51 35 17
51 36 10
51 37 32
51 38 15
51 39 21
51 40 13
51 41 29
51 43 3
51 44 25
51 45 9
51 46 28
51 47 13
51 48 22
51 49 20
51 50 14
52 0 30
52 1 32
52 3 40
52 4 38
52 5 5
52 6 15
52 7 9
52 8 24
52 9 5
52 10 5
52 11 28
52 12 8
52 13 9
52 14 5
52 15 11
52 16 9
52 17 3
52 18 21
52 19 19
52 20 26
52 21 2
52 22 31
52 23 8
52 24 15
52 25 9
52 26 7
52 27 36
52 29 12
52 30 33
52 31 10
52 33 36
52 34 5
52 35 14
52 37 30
52 38 11
52 39 10
52 40 17
52 41 38
52 42 7
52 43 27
52 44 13
52 45 11
52 46 11
52 48 25
52 49 19
52 50 20
52 51 12
53 0 9
53 1 35
53 2 15
53 3 15
53 5 16
53 7 23
53 8 36
53 9 23
53 10 36
53 11 3
53 12 40
53 13 10
53 14 8
53 15 35
53 17 22
53 18 3
53 19 38
53 20 18
53 21 13
53 22 2
53 23 2
53 24 3
53 25 8
53 26 30
53 27 16
53 28 9
53 29 28
53 30 22
53 31 24
53 32 14
53 33 14
53 35 20
53 37 36
53 39 25
53 40 38
53 41 31
53 42 5
53 43 39
53 44 10
53 45 26
53 46 13
53 47 20
53 48 3
53 49 9
53 50 14
53 51 15
53 52 27
54 1 22
54 2 38
54 3 11
54 5 15
54 6 37
54 7 26
54 8 9
54 9 21
54 10 39
54 11 20
54 12 6
54 13 31
54 14 26
54 15 22
54 17 23
54 18 13
54 19 33
54 20 23
54 21 16
54 22 3
54 23 29
54 24 17
54 25 34
54 26 6
54 27 3
54 29 35
54 30 26
54 31 8
54 32 13
54 33 28
54 34 2
54 35 25
54 36 16
54 37 30
54 38 33
54 39 16
54 40 14
54 41 22
54 42 36
54 44 9
54 45 17
54 46 34
54 47 3
54 48 16
54 49 29
54 50 35
54 51 6
55 0 19
55 1 31
55 2 16
55 3 29
55 4 39
55 5 39
55 6 5
55 7 30
55 8 1
55 10 21
55 11 24
55 12 20
55 13 10
55 14 15
55 15 21
55 16 40
55 17 3
55 18 11
55 19 9
55 21 11
55 22 20
55 23 19
55 24 31
55 25 38
55 26 36
55 27 14
55 28 4
55 29 1
55 31 33
55 32 34
55 33 10
55 34 9
55 35 39
55 36 36
55 37 1
55 38 14
55 39 1
55 40 5
55 41 4
55 42 36
55 43 24
55 44 37
55 45 24
55 46 7
55 47 19
55 48 11
55 49 36
55 50 14
55 51 40
55 52 34
55 53 19
55 54 38
56 0 23
56 1 22
56 2 1
56 3 37
56 4 1
56 5 36
56 6 29
56 7 5
56 8 31
56 9 7
56 12 12
56 16 26
56 17 19
56 18 16
56 19 29
56 20 21
56 21 28
56 22 1
56 23 23
56 24 4
56 25 7
56 26 8
56 27 19
56 28 29
56 29 15
56 31 11
56 33 6
56 35 5
56 36 21
56 37 33
56 38 2
56 39 19
56 40 8
56 42 26
56 43 18
56 44 20
56 45 4
56 46 31
56 47 27
56 49 17
56 50 29
56 51 20
56 52 10
56 53 16
56 54 15
56 55 1
57 0 31
57 1 26
57 2 6
57 3 4
57 4 6
57 6 34
57 7 34
57 8 16
57 9 18
57 10 17
57 11 35
57 13 29
57 14 5
57 16 27
57 17 15
57 18 14
57 19 29
57 20 30
57 21 19
57 22 7
57 23 12
57 24 38
57 25 20
57 26 38
57 27 5
57 28 25
57 29 35
57 30 2
57 31 5
57 32 37
57 33 1
57 34 31
57 35 35
57 36 20
57 37 9
57 38 15
57 39 25
57 40 35
57 41 21
57 42 16
57 43 13
57 44 4
57 47 40
57 48 4
57 49 22
57 50 39
57 51 17
57 52 14
57 53 6
57 54 29
57 55 30
58 0 28
58 1 5
58 2 23
58 3 22
58 4 21
58 5 40
58 6 12
58 7 10
58 8 30
58 10 39
58 11 17
58 13 21
58 14 22
58 15 25
58 16 29
58 18 13
58 19 22
58 21 12
58 22 16
58 23 28
58 24 40
58 25 18
58 26 5
58 27 28
58 28 32
58 29 32
58 30 22
58 31 31
58 32 4
58 33 28
58 34 40
58 35 25
58 36 22
58 37 15
58 38 23
58 39 34
58 40 1
58 41 40
58 42 23
58 43 32
58 44 21
58 45 40
58 46 37
58 47 9
58 49 39
58 50 38
58 51 16
58 53 38
58 55 19
58 56 14
58 57 39
59 0 28
59 1 2
59 2 23
59 3 1
59 4 23
59 5 30
59 6 5
59 7 25
59 9 25
59 10 10
59 11 16
59 12 26
59 13 9
59 14 4
59 15 29
59 17 30
59 18 17
59 19 20
59 21 8
59 22 5
59 23 34
59 24 2
59 25 14
59 26 27
59 27 11
59 28 25
59 29 8
59 30 9
59 31 23
59 32 21
59 33 17
59 34 30
59 35 18
59 36 30
59 37 34
59 38 40
59 39 31
59 40 26
59 41 10
59 42 28
59 43 25
59 44 8
59 45 22
59 46 10
59 47 2
59 49 11
59 50 29
59 51 2
59 52 32
59 53 7
59 54 7
59 55 10
59 56 33
59 57 10
59 58 22
60 0 29
60 1 1
60 2 8
60 3 1
60 4 14
60 5 31
60 7 1
60 8 40
60 9 7
60 10 28
60 11 3
60 13 13
60 14 39
60 15 7
60 16 19
60 17 39
60 18 13
60 19 15
60 20 21
60 22 32
60 23 23
60 24 7
60 25 3
60 26 8
60 27 3
60 28 25
60 29 29
60 30 10
60 32 20
60 33 25
60 34 16
60 35 36
60 36 17
60 37 29
60 38 26
60 39 36
60 40 3
60 41 38
60 42 24
60 43 10
60 44 34
60 45 15
60 47 38
60 48 16
60 49 15
60 50 11
60 51 14
60 53 14
60 54 36
60 55 1
60 56 1
60 57 29
60 58 35
60 59 14
61 0 1
61 2 40
61 3 15
61 4 9
61 5 20
61 6 22
61 7 5
61 8 31
61 10 18
61 11 35
61 12 3
61 13 20
61 14 17
61 15 23
61 16 24
61 18 6
61 19 18
61 20 11
61 21 10
61 22 39
61 23 2
61 24 31
61 25 14
61 26 30
61 27 33
61 28 2
61 29 25
61 30 13
61 31 35
61 32 26
61 33 31
61 34 13
61 35 30
61 36 32
61 37 40
61 39 5
61 40 30
61 41 14
61 42 27
61 43 37
61 44 25
61 45 4
61 46 30
61 47 4
61 48 30
61 49 28
61 50 13
61 52 20
61 53 15
61 54 28
61 56 26
61 57 1
61 58 21
61 59 19
61 60 9
62 0 36
62 1 17
62 2 22
62 3 35
62 4 24
62 5 40
62 7 4
62 8 9
62 9 23
62 10 1
62 11 12
62 12 18
62 13 24
62 14 9
62 15 1
62 16 39
62 17 28
62 19 1
62 20 18
62 21 23
62 22 9
62 23 31
62 24 30
62 25 23
62 26 27
62 28 34
62 29 25
62 30 19
62 31 1
62 32 28
62 35 8
62 36 6
62 37 19
62 38 16
62 39 1
62 40 16
62 41 19
62 42 36
62 43 23
62 44 22
62 45 5
62 46 18
62 47 30
62 48 26
62 49 15
62 50 6
62 51 25
62 52 6
62 53 4
62 55 8
62 56 21
62 57 7
62 58 11
62 59 10
62 60 40
62 61 3
63 0 14
63 2 27
63 3 25
63 4 26
63 5 8
63 6 29
63 7 37
63 8 30
63 9 15
63 10 31
63 11 7
63 12 17
63 14 39
63 15 39
63 16 40
63 17 39
63 18 26
63 19 3
63 20 30
63 21 38
63 22 17
63 24 12
63 25 35
63 26 33
63 27 27
63 28 31
63 29 30
63 30 21
63 31 1
63 32 27
63 33 40
63 34 19
63 35 7
63 36 26
63 37 35
63 38 34
63 39 36
63 40 22
63 41 16
63 42 30
63 43 34
63 44 1
63 45 20
63 46 39
63 47 24
63 48 25
63 50 40
63 51 25
63 52 29
63 53 2
63 54 25
63 55 1
63 56 40
63 57 34
63 58 27
63 61 17
63 62 10
64 0 34
64 1 27
64 2 23
64 3 21
64 4 2
64 5 25
64 6 10
64 7 23
64 8 23
64 9 18
64 10 27
64 11 30
64 13 18
64 14 13
64 15 16
64 16 14
64 18 5
64 19 3
64 20 26
64 22 29
64 23 34
64 24 33
64 25 22
64 26 26
64 27 4
64 29 23
64 30 15
64 31 10
64 32 33
64 33 29
64 34 5
64 35 15
64 36 2
64 37 13
64 38 16
64 39 17
64 40 17
64 41 33
64 42 34
64 43 10
64 44 32
64 45 15
64 46 16
64 47 32
64 48 36
64 49 9
64 50 24
64 51 27
64 52 12
64 53 19
64 54 35
64 55 7
64 56 4
64 57 5
64 58 16
64 59 15
64 60 10
64 61 14
64 62 7
64 63 16
65 0 16
65 1 22
65 2 35
65 3 4
65 4 31
65 5 30
65 6 30
65 7 11
65 8 19
65 9 40
65 10 3
65 11 4
65 12 39
65 13 16
65 14 22
65 16 10
65 17 36
65 18 32
65 19 5
65 20 20
65 21 39
65 22 19
65 23 29
65 24 13
65 25 18
65 27 34
65 28 20
65 29 29
65 30 37
65 31 22
65 32 34
65 33 38
65 34 21
65 35 28
65 36 21
65 37 23
65 38 13
65 39 28
65 40 35
65 41 23
65 42 35
65 43 3
65 45 39
65 46 19
65 47 30
65 48 18
65 49 20
65 50 34
65 52 33
65 53 29
65 54 36
65 55 25
65 56 26
65 58 23
65 59 29
65 60 4
65 62 36
65 63 16
65 64 1
66 0 26
66 2 37
66 3 26
66 4 19
66 5 5
66 6 7
66 7 7
66 8 30
66 9 6
66 10 32
66 11 16
66 12 34
66 13 27
66 15 12
66 17 28
66 18 37
66 19 39
66 20 11
66 21 17
66 22 37
66 23 35
66 24 7
66 25 29
66 26 38
66 27 40
66 28 13
66 29 29
66 30 36
66 32 8
66 33 28
66 34 6
66 35 12
66 36 4
66 37 35
66 38 23
66 39 23
66 40 20
66 41 2
66 42 30
66 43 17
66 44 19
66 45 22
66 46 17
66 47 37
66 48 6
66 49 6
66 50 16
66 51 16
66 52 33
66 53 11
66 55 17
66 56 4
66 57 18
66 58 19
66 59 25
66 60 19
66 61 8
66 62 9
66 64 29
66 65 4
67 0 37
67 1 13
67 2 8
67 3 35
67 4 37
67 5 16
67 6 7
67 7 27
67 8 7
67 9 22
67 10 15
67 11 39
67 12 30
67 13 38
67 14 21
67 15 11
67 16 5
67 18 7
67 19 16
67 20 23
67 21 16
67 22 12
67 23 25
67 24 12
67 25 13
67 26 25
67 27 16
67 28 10
67 29 19
67 31 8
67 32 32
67 33 31
67 34 34
67 35 3
67 36 35
67 37 8
67 38 24
67 39 11
67 40 33
67 41 13
67 42 9
67 43 31
67 44 32
67 46 7
67 47 17
67 48 26
67 49 22
67 50 37
67 51 9
67 52 4
67 53 8
67 54 3
67 55 23
67 56 17
67 57 5
67 58 14
67 59 17
67 60 19
67 61 18
67 62 40
67 63 31
67 64 38
67 65 22
68 0 26
68 1 31
68 2 35
68 3 40
68 4 32
68 5 25
68 6 22
68 7 13
68 8 13
68 9 14
68 10 34
68 11 8
68 12 26
68 13 6
68 14 19
68 15 16
68 16 26
68 17 32
68 18 3
68 19 18
68 20 22
68 21 30
68 22 7
68 23 15
68 24 23
68 25 11
68 26 4
68 27 11
68 28 36
68 29 1
68 30 3
68 31 11
68 32 37
68 33 31
68 34 36
68 35 38
68 36 1
68 37 17
68 39 13
68 40 14
68 41 28
68 42 38
68 43 32
68 44 16
68 45 38
68 47 20
68 48 21
68 49 38
68 50 4
68 52 17
68 53 18
68 54 25
68 55 18
68 56 4
68 57 2
68 59 29
68 60 31
68 61 15
68 62 20
68 63 9
68 64 17
68 65 34
68 67 31
69 0 9
69 2 15
69 3 18
69 4 30
69 5 16
69 6 1
69 8 32
69 9 39
69 10 10
69 11 34
69 13 23
69 14 18
69 15 19
69 16 16
69 17 12
69 18 8
69 20 10
69 21 5
69 22 16
69 23 8
69 24 29
69 25 7
69 26 40
69 27 23
69 28 2
69 29 20
69 30 11
69 31 30
69 32 36
69 33 2
69 34 33
69 35 18
69 36 28
69 37 30
69 38 5
69 39 27
69 40 16
69 41 8
69 42 21
69 43 11
69 44 37
69 45 16
69 46 22
69 47 13
69 48 3
69 49 12
69 50 16
69 51 22
69 52 26
69 54 16
69 55 20
69 56 17
69 57 21
69 58 13
69 59 19
69 60 4
69 61 28
69 62 22
69 63 36
69 64 1
69 65 6
69 66 36
69 68 31
